Traveling Salesman Problem/TSP_generados/Aleatorio1620390890_7.tsp
NAME: Aleatorio1620390890_7.tsp
COMMENT: Randomly generated scenario
TYPE: TSP
DIMENSION: 7
EDGE_WEIGHT_TYPE: ATT
NODE_COORD_SECTION
1 46.85 31.48
2 27.44 33.86
3 18.04 29.66
4 0.25 13.91
5 10.87 33.3
6 46.74 7.84
7 27.63 28.77
