Traveling Salesman Problem/TSP_generados/Aleatorio1620390890_7.opt.tour
NAME: Aleatorio1620390890_7.opt.tour
COMMENT: Optimal solution for Aleatorio1620390890_7 (134.95386190174048)
TYPE: TOUR
DIMENSION: 7
TOUR_SECTION
1 2 7 3 5 4 6
-1
EOF
